--- Job PL_Transporte_DistribucionSal_new.gms Start 09/16/22 13:02:58 40.2.0 6cf3fb9c LEX-LEG x86 64bit/Linux
--- Applying:
    /opt/GAMS/gams40.2_linux_x64_64_sfx/gmsprmun.txt
--- GAMS Parameters defined
    Input /home/embid/Desktop/class/mog/modelos-operativos-gestion/ejercicios/gams/PL_Transporte_DistribucionSal_new.gms
    PageSize 0
    ScrDir /home/embid/Desktop/class/mog/modelos-operativos-gestion/ejercicios/gams/225a/
    SysDir /opt/GAMS/gams40.2_linux_x64_64_sfx/
    LogOption 3
    ErrMsg 1
    ErrorLog 99
    IDE 1
    LstTitleLeftAligned 1
Licensee: GAMS Demo license for Juan Embid               G220915|0002CO-GEN
          Universidad Complutense de Madrid, Spain                 DL073690
          /opt/GAMS/gams40.2_linux_x64_64_sfx/gamslice.txt
          jembid@ucm.es, Juan Embid                                        
          Demo license for demonstration and instructional purposes only
Processor information: 1 socket(s), 4 core(s), and 8 thread(s) available
GAMS 40.2.0   Copyright (C) 1987-2022 GAMS Development. All rights reserved
--- Starting compilation
--- PL_Transporte_DistribucionSal_new.gms(72) 3 Mb
--- Starting execution: elapsed 0:00:00.021
--- PL_Transporte_DistribucionSal_new.gms(43) 4 Mb
--- Generating LP model transporteSal
--- PL_Transporte_DistribucionSal_new.gms(70) 4 Mb
---   13 rows  28 columns  82 non-zeroes
--- Range statistics (absolute non-zero finite values)
--- RHS       [min, max] : [ 2.000E+00, 1.000E+01] - Zero values observed as well
--- Bound     [min, max] : [        NA,        NA] - Zero values observed as well
--- Matrix    [min, max] : [ 1.000E+00, 7.000E+02]
--- Executing CPLEX (Solvelink=2): elapsed 0:00:00.027

IBM ILOG CPLEX   40.2.0 6cf3fb9c Sep 1, 2022           LEG x86 64bit/Linux    

--- *** This solver runs with a demo license. No commercial use.
--- GMO setup time: 0.00s
--- GMO memory 0.50 Mb (peak 0.50 Mb)
--- Dictionary memory 0.00 Mb
--- Cplex 22.1.0.0 link memory 0.00 Mb (peak 0.00 Mb)
--- Starting Cplex

Version identifier: 22.1.0.0 | 2022-03-09 | 1a383f8ce
CPXPARAM_Advance                                 0
CPXPARAM_Simplex_Display                         2
CPXPARAM_Threads                                 1
CPXPARAM_MIP_Display                             4
CPXPARAM_MIP_Pool_Capacity                       0
CPXPARAM_MIP_Tolerances_AbsMIPGap                0
Tried aggregator 1 time.
LP Presolve eliminated 0 rows and 1 columns.
Reduced LP has 12 rows, 27 columns, and 54 nonzeros.
Presolve time = 0.00 sec. (0.02 ticks)

Iteration      Dual Objective            In Variable           Out Variable
     1             800.000000          cantidad(1,1)       demanda(1) slack
     2            1400.000000          cantidad(2,3)       demanda(3) slack
     3            2450.000000          cantidad(2,2)       demanda(2) slack
     4            3200.000000          cantidad(1,4)       demanda(4) slack
     5            4400.000000          cantidad(2,5)       demanda(5) slack
     6            4800.000000          cantidad(2,6)       demanda(6) slack
     7            5200.000000          cantidad(3,7)       demanda(7) slack
     8            5500.000000          cantidad(3,8)       demanda(8) slack
     9            5900.000000          cantidad(3,9)       demanda(9) slack
    10            5900.000000          cantidad(3,5)    suministro(2) slack
    11            6000.000000          cantidad(1,2)    suministro(3) slack

--- LP status (1): optimal.
--- Cplex Time: 0.01sec (det. 0.04 ticks)


Optimal solution found
Objective:         6000.000000

--- Reading solution for model transporteSal
*** Status: Normal completion
--- Job PL_Transporte_DistribucionSal_new.gms Stop 09/16/22 13:02:58 elapsed 0:00:00.099
